;symbolic execution tree
(push)
(assert (le x0 java.lang.Object))
(check-sat)
(push)
(assert (le x1 java.lang.Object))
(check-sat)
(push)
(assert (le x2 java.lang.Object))
(check-sat)
(push)
(assert (le x3 java.lang.Object))
(check-sat)
(push)
(assert (le x4 java.lang.Object))
(check-sat)
(push)
(assert (le x5 java.lang.Object))
(check-sat)
(push)
(assert (le x6 java.lang.Object))
(check-sat)
(push)
(assert (le x7 java.lang.Object))
(check-sat)
(push)
(assert (le x7 net.n3.nanoxml.XMLElement))
(check-sat)
(push)
(assert (= x1 java.lang.String))
(check-sat)
(push)
(assert (le x7 net.n3.nanoxml.XMLElement))
(check-sat)
(push)
(assert (le x6 net.n3.nanoxml.XMLElement))
(check-sat)
(pop)
(push)
(assert (not (le x6 net.n3.nanoxml.XMLElement)))
(check-sat)
(pop)
(push)
(assert (= x3 java.lang.String))
(check-sat)
(pop)
(push)
(assert (not (= x3 java.lang.String)))
(check-sat)
(pop)
(pop)
(push)
(assert (not (le x7 net.n3.nanoxml.XMLElement)))
(check-sat)
(pop)
(pop)
(push)
(assert (not (= x1 java.lang.String)))
(check-sat)
(push)
(assert (= x5 java.lang.String))
(check-sat)
(pop)
(push)
(assert (not (= x5 java.lang.String)))
(check-sat)
(pop)
(push)
(assert (= x0 java.lang.String))
(check-sat)
(push)
(assert (le x2 java.util.Properties))
(check-sat)
(pop)
(push)
(assert (not (le x2 java.util.Properties)))
(check-sat)
(pop)
(push)
(assert (= x0 java.lang.String))
(check-sat)
(pop)
(push)
(assert (not (= x0 java.lang.String)))
(check-sat)
(pop)
(push)
(assert (= x1 java.lang.String))
(check-sat)
(pop)
(push)
(assert (not (= x1 java.lang.String)))
(check-sat)
(pop)
(pop)
(push)
(assert (not (= x0 java.lang.String)))
(check-sat)
(pop)
(push)
(assert (= x2 java.lang.String))
(check-sat)
(pop)
(push)
(assert (not (= x2 java.lang.String)))
(check-sat)
(pop)
(pop)
(push)
(assert (= x3 java.lang.StringBuilder))
(check-sat)
(pop)
(push)
(assert (not (= x3 java.lang.StringBuilder)))
(check-sat)
(push)
(assert (le x4 java.util.Properties))
(check-sat)
(pop)
(push)
(assert (not (le x4 java.util.Properties)))
(check-sat)
(pop)
(push)
(assert (= x0 java.lang.String))
(check-sat)
(push)
(assert (= x3 java.lang.StringBuilder))
(check-sat)
(pop)
(push)
(assert (not (= x3 java.lang.StringBuilder)))
(check-sat)
(pop)
(pop)
(push)
(assert (not (= x0 java.lang.String)))
(check-sat)
(pop)
(push)
(assert (= x5 java.lang.StringBuffer))
(check-sat)
(push)
(assert (le x4 java.util.Vector))
(check-sat)
(push)
(assert (= x2 java.lang.StringBuffer))
(check-sat)
(pop)
(push)
(assert (not (= x2 java.lang.StringBuffer)))
(check-sat)
(pop)
(pop)
(push)
(assert (not (le x4 java.util.Vector)))
(check-sat)
(pop)
(push)
(assert (= x3 java.lang.StringBuilder))
(check-sat)
(pop)
(push)
(assert (not (= x3 java.lang.StringBuilder)))
(check-sat)
(pop)
(pop)
(push)
(assert (not (= x5 java.lang.StringBuffer)))
(check-sat)
(push)
(assert (= x0 java.lang.String))
(check-sat)
(pop)
(push)
(assert (not (= x0 java.lang.String)))
(check-sat)
(pop)
(pop)
(pop)
(pop)
(push)
(assert (not (le x7 net.n3.nanoxml.XMLElement)))
(check-sat)
(push)
(assert (= x5 java.lang.StringBuffer))
(check-sat)
(push)
(assert (= x6 java.lang.String))
(check-sat)
(pop)
(push)
(assert (not (= x6 java.lang.String)))
(check-sat)
(push)
(assert (= x6 java.lang.String))
(check-sat)
(pop)
(push)
(assert (not (= x6 java.lang.String)))
(check-sat)
(pop)
(pop)
(pop)
(push)
(assert (not (= x5 java.lang.StringBuffer)))
(check-sat)
(pop)
(push)
(assert (le x4 net.n3.nanoxml.XMLElement))
(check-sat)
(pop)
(push)
(assert (not (le x4 net.n3.nanoxml.XMLElement)))
(check-sat)
(push)
(assert (= x3 java.lang.String))
(check-sat)
(pop)
(push)
(assert (not (= x3 java.lang.String)))
(check-sat)
(pop)
(push)
(assert (le x5 java.io.Reader))
(check-sat)
(push)
(assert (le x7 net.n3.nanoxml.XMLElement))
(check-sat)
(pop)
(push)
(assert (not (le x7 net.n3.nanoxml.XMLElement)))
(check-sat)
(pop)
(push)
(assert (= x2 java.lang.String))
(check-sat)
(pop)
(push)
(assert (not (= x2 java.lang.String)))
(check-sat)
(push)
(assert (le x7 net.n3.nanoxml.XMLElement))
(check-sat)
(pop)
(push)
(assert (not (le x7 net.n3.nanoxml.XMLElement)))
(check-sat)
(pop)
(pop)
(push)
(assert (= x1 java.lang.String))
(check-sat)
(pop)
(push)
(assert (not (= x1 java.lang.String)))
(check-sat)
(pop)
(pop)
(push)
(assert (not (le x5 java.io.Reader)))
(check-sat)
(pop)
(pop)
(push)
(assert (= x6 java.lang.StringBuilder))
(check-sat)
(push)
(assert (le x7 net.n3.nanoxml.XMLElement))
(check-sat)
(pop)
(push)
(assert (not (le x7 net.n3.nanoxml.XMLElement)))
(check-sat)
(pop)
(push)
(assert (le x7 net.n3.nanoxml.XMLElement))
(check-sat)
(pop)
(push)
(assert (not (le x7 net.n3.nanoxml.XMLElement)))
(check-sat)
(pop)
(pop)
(push)
(assert (not (= x6 java.lang.StringBuilder)))
(check-sat)
(push)
(assert (= x1 java.lang.String))
(check-sat)
(pop)
(push)
(assert (not (= x1 java.lang.String)))
(check-sat)
(pop)
(push)
(assert (= x3 java.lang.StringBuffer))
(check-sat)
(push)
(assert (= x2 java.lang.StringBuffer))
(check-sat)
(pop)
(push)
(assert (not (= x2 java.lang.StringBuffer)))
(check-sat)
(pop)
(pop)
(push)
(assert (not (= x3 java.lang.StringBuffer)))
(check-sat)
(pop)
(push)
(assert (le x1 net.n3.nanoxml.XMLElement))
(check-sat)
(push)
(assert (= x6 java.lang.StringBuilder))
(check-sat)
(pop)
(push)
(assert (not (= x6 java.lang.StringBuilder)))
(check-sat)
(pop)
(pop)
(push)
(assert (not (le x1 net.n3.nanoxml.XMLElement)))
(check-sat)
(push)
(assert (le x4 net.n3.nanoxml.XMLElement))
(check-sat)
(push)
(assert (le x2 java.util.Vector))
(check-sat)
(pop)
(push)
(assert (not (le x2 java.util.Vector)))
(check-sat)
(pop)
(pop)
(push)
(assert (not (le x4 net.n3.nanoxml.XMLElement)))
(check-sat)
(pop)
(push)
(assert (le x4 net.n3.nanoxml.XMLElement))
(check-sat)
(push)
(assert (= x0 java.lang.String))
(check-sat)
(pop)
(push)
(assert (not (= x0 java.lang.String)))
(check-sat)
(pop)
(pop)
(push)
(assert (not (le x4 net.n3.nanoxml.XMLElement)))
(check-sat)
(pop)
(pop)
(push)
(assert (le x7 net.n3.nanoxml.XMLElement))
(check-sat)
(pop)
(push)
(assert (not (le x7 net.n3.nanoxml.XMLElement)))
(check-sat)
(push)
(assert (= x1 java.lang.String))
(check-sat)
(pop)
(push)
(assert (not (= x1 java.lang.String)))
(check-sat)
(pop)
(push)
(assert (le x5 net.n3.nanoxml.XMLElement))
(check-sat)
(push)
(assert (le x1 net.n3.nanoxml.XMLElement))
(check-sat)
(pop)
(push)
(assert (not (le x1 net.n3.nanoxml.XMLElement)))
(check-sat)
(pop)
(pop)
(push)
(assert (not (le x5 net.n3.nanoxml.XMLElement)))
(check-sat)
(pop)
(push)
(assert (= x5 java.lang.String))
(check-sat)
(pop)
(push)
(assert (not (= x5 java.lang.String)))
(check-sat)
(pop)
(pop)
(push)
(assert (le x3 net.sourceforge.jxml2sql.output.Output))
(check-sat)
(push)
(assert (= x0 java.lang.String))
(check-sat)
(pop)
(push)
(assert (not (= x0 java.lang.String)))
(check-sat)
(pop)
(push)
(assert (= x4 java.lang.String))
(check-sat)
(pop)
(push)
(assert (not (= x4 java.lang.String)))
(check-sat)
(pop)
(push)
(assert (= x4 java.lang.String))
(check-sat)
(push)
(assert (= x4 java.lang.String))
(check-sat)
(pop)
(push)
(assert (not (= x4 java.lang.String)))
(check-sat)
(pop)
(pop)
(push)
(assert (not (= x4 java.lang.String)))
(check-sat)
(pop)
(push)
(assert (le x7 net.n3.nanoxml.XMLElement))
(check-sat)
(pop)
(push)
(assert (not (le x7 net.n3.nanoxml.XMLElement)))
(check-sat)
(pop)
(push)
(assert (= x6 java.lang.StringBuilder))
(check-sat)
(pop)
(push)
(assert (not (= x6 java.lang.StringBuilder)))
(check-sat)
(pop)
(pop)
(push)
(assert (not (le x3 net.sourceforge.jxml2sql.output.Output)))
(check-sat)
(pop)
(push)
(assert (= x5 java.lang.StringBuilder))
(check-sat)
(push)
(assert (= x4 java.lang.String))
(check-sat)
(push)
(assert (= x6 java.lang.StringBuilder))
(check-sat)
(pop)
(push)
(assert (not (= x6 java.lang.StringBuilder)))
(check-sat)
(pop)
(pop)
(push)
(assert (not (= x4 java.lang.String)))
(check-sat)
(pop)
(push)
(assert (le x2 net.n3.nanoxml.XMLElement))
(check-sat)
(push)
(assert (= x0 java.lang.StringBuffer))
(check-sat)
(pop)
(push)
(assert (not (= x0 java.lang.StringBuffer)))
(check-sat)
(pop)
(pop)
(push)
(assert (not (le x2 net.n3.nanoxml.XMLElement)))
(check-sat)
(pop)
(pop)
(push)
(assert (not (= x5 java.lang.StringBuilder)))
(check-sat)
(pop)
(push)
(assert (le x3 net.n3.nanoxml.XMLElement))
(check-sat)
(pop)
(push)
(assert (not (le x3 net.n3.nanoxml.XMLElement)))
(check-sat)
(push)
(assert (= x1 java.lang.StringBuffer))
(check-sat)
(pop)
(push)
(assert (not (= x1 java.lang.StringBuffer)))
(check-sat)
(pop)
(pop)
(push)
(assert (le x1 net.n3.nanoxml.XMLElement))
(check-sat)
(pop)
(push)
(assert (not (le x1 net.n3.nanoxml.XMLElement)))
(check-sat)
(pop)
(push)
(assert (le x7 net.n3.nanoxml.XMLElement))
(check-sat)
(pop)
(push)
(assert (not (le x7 net.n3.nanoxml.XMLElement)))
(check-sat)
(pop)
(push)
(assert (le x7 net.n3.nanoxml.XMLElement))
(check-sat)
(pop)
(push)
(assert (not (le x7 net.n3.nanoxml.XMLElement)))
(check-sat)
(pop)
(push)
(assert (le x7 net.n3.nanoxml.XMLElement))
(check-sat)
(pop)
(push)
(assert (not (le x7 net.n3.nanoxml.XMLElement)))
(check-sat)
(push)
(assert (= x2 java.lang.String))
(check-sat)
(pop)
(push)
(assert (not (= x2 java.lang.String)))
(check-sat)
(pop)
(push)
(assert (= x6 java.lang.StringBuilder))
(check-sat)
(pop)
(push)
(assert (not (= x6 java.lang.StringBuilder)))
(check-sat)
(pop)
(pop)
(pop)
(pop)
